param nvertices=10; #numero de vertices
param gama=40;
param ndemandas=40; #numero de demandas
param capacidadeij: 1 2 3 4 5 6 7 8 9 10 :=
 1 100 100 100 100 100 100 100 100 100 100
2 100 100 100 100 100 100 100 100 100 100
3 100 100 100 100 100 100 100 100 100 100
4 100 100 100 100 100 100 100 100 100 100
5 100 100 100 100 100 100 100 100 100 100
6 100 100 100 100 100 100 100 100 100 100
7 100 100 100 100 100 100 100 100 100 100
8 100 100 100 100 100 100 100 100 100 100
9 100 100 100 100 100 100 100 100 100 100
10 100 100 100 100 100 100 100 100 100 100; #Capacidade de banda de comunicacao de cada arco
param Adj: 1 2 3 4 5 6 7 8 9 10 := 
1 0 0 0 0 0 1 0 0 1 1
2 0 0 1 0 1 0 0 0 0 1
3 0 1 0 1 1 0 0 1 0 0
4 0 0 1 0 0 0 1 1 0 0
5 0 1 1 0 0 0 0 0 0 1
6 1 0 0 0 0 0 0 0 0 1
7 0 0 0 1 0 0 0 1 1 0
8 0 0 1 1 0 0 1 0 0 0
9 1 0 0 0 0 0 1 0 0 1
10 1 1 0 0 1 1 0 0 1 0;  #Matriz de adjacencia da topologia
param I: 1 2 3 :=
1 9.000000 8.000000 10.000000
2 2.000000 4.000000 10.000000
3 10.000000 4.000000 17.000000
4 2.000000 8.000000 13.000000
5 9.000000 10.000000 14.000000
6 2.000000 8.000000 11.000000
7 2.000000 10.000000 11.000000
8 6.000000 8.000000 17.000000
9 7.000000 10.000000 16.000000
10 2.000000 6.000000 16.000000
11 5.000000 4.000000 10.000000
12 3.000000 10.000000 13.000000
13 5.000000 7.000000 12.000000
14 6.000000 10.000000 10.000000
15 4.000000 2.000000 11.000000
16 4.000000 3.000000 19.000000
17 6.000000 8.000000 16.000000
18 10.000000 9.000000 16.000000
19 4.000000 5.000000 10.000000
20 5.000000 8.000000 19.000000
21 9.000000 1.000000 15.000000
22 1.000000 9.000000 18.000000
23 3.000000 10.000000 17.000000
24 4.000000 2.000000 15.000000
25 1.000000 3.000000 17.000000
26 3.000000 2.000000 11.000000
27 5.000000 7.000000 12.000000
28 7.000000 4.000000 10.000000
29 7.000000 3.000000 16.000000
30 1.000000 5.000000 11.000000
31 9.000000 7.000000 11.000000
32 9.000000 7.000000 18.000000
33 8.000000 3.000000 16.000000
34 5.000000 9.000000 13.000000
35 1.000000 5.000000 11.000000
36 2.000000 9.000000 18.000000
37 9.000000 3.000000 11.000000
38 4.000000 9.000000 14.000000
39 10.000000 6.000000 13.000000
40 1.000000 7.000000 18.000000;
param Ib: 1:=
1 21
2 32
3 19
4 33
5 10
6 47
7 42
8 22
9 43
10 23
11 41
12 42
13 44
14 40
15 13
16 37
17 14
18 39
19 40
20 37
21 37
22 44
23 35
24 38
25 48
26 41
27 46
28 15
29 20
30 25
31 38
32 27
33 15
34 29
35 16
36 18
37 48
38 46
39 47
40 23;
param maxIb: 1 :=
1 32
2 48
3 29
4 50
5 15
6 71
7 63
8 33
9 65
10 35
11 62
12 63
13 66
14 60
15 20
16 56
17 21
18 59
19 60
20 56
21 56
22 66
23 53
24 57
25 72
26 62
27 69
28 23
29 30
30 38
31 57
32 41
33 23
34 44
35 24
36 27
37 72
38 69
39 71
40 35;
